<number of tasks>
250

<cycle time>
1000

<order strength>
0.596


<task times>
1 75
2 101
3 57
4 41
5 161
6 154
7 115
8 99
9 124
10 134
11 47
12 70
13 86
14 146
15 64
16 228
17 118
18 59
19 112
20 113
21 262
22 148
23 81
24 83
25 147
26 72
27 52
28 141
29 134
30 203
31 89
32 101
33 87
34 49
35 62
36 168
37 96
38 233
39 63
40 74
41 99
42 154
43 119
44 294
45 181
46 120
47 179
48 29
49 167
50 177
51 122
52 21
53 172
54 154
55 161
56 46
57 44
58 146
59 240
60 139
61 291
62 46
63 265
64 165
65 203
66 175
67 259
68 51
69 270
70 29
71 175
72 140
73 105
74 215
75 75
76 40
77 84
78 67
79 152
80 211
81 189
82 244
83 131
84 230
85 108
86 162
87 77
88 97
89 117
90 150
91 26
92 151
93 85
94 166
95 68
96 180
97 104
98 77
99 73
100 29
101 152
102 25
103 124
104 157
105 264
106 105
107 71
108 80
109 160
110 71
111 74
112 52
113 59
114 144
115 271
116 283
117 60
118 45
119 46
120 255
121 88
122 81
123 73
124 98
125 75
126 122
127 109
128 109
129 130
130 22
131 142
132 36
133 247
134 94
135 64
136 176
137 71
138 122
139 218
140 63
141 60
142 167
143 71
144 201
145 35
146 61
147 75
148 151
149 139
150 108
151 102
152 173
153 127
154 57
155 106
156 219
157 112
158 147
159 159
160 168
161 182
162 143
163 23
164 132
165 396
166 143
167 70
168 153
169 314
170 215
171 157
172 120
173 171
174 205
175 151
176 64
177 158
178 181
179 84
180 139
181 192
182 158
183 105
184 246
185 186
186 256
187 169
188 53
189 157
190 102
191 162
192 24
193 121
194 38
195 59
196 230
197 184
198 111
199 165
200 30
201 186
202 243
203 44
204 227
205 191
206 93
207 112
208 183
209 28
210 133
211 170
212 24
213 75
214 79
215 104
216 111
217 175
218 42
219 76
220 69
221 198
222 175
223 70
224 24
225 84
226 62
227 207
228 22
229 121
230 174
231 155
232 65
233 135
234 86
235 53
236 176
237 134
238 119
239 105
240 187
241 86
242 80
243 72
244 79
245 299
246 146
247 23
248 148
249 231
250 68

<precedence relations>
1,15
2,15
3,203
4,5
4,6
4,7
4,8
4,9
4,10
4,11
4,12
4,13
4,14
5,229
6,229
7,15
8,15
9,40
10,242
11,58
12,58
13,16
13,17
13,19
13,20
13,21
13,22
13,23
14,18
14,59
15,24
15,25
15,26
15,27
15,28
15,29
15,32
16,163
17,203
18,84
19,84
20,58
21,132
22,36
22,42
22,68
23,29
23,30
24,163
25,217
26,242
27,58
28,33
28,35
28,36
28,39
28,47
29,58
30,31
30,32
30,34
30,37
30,38
31,40
32,40
33,40
34,242
35,58
36,58
37,132
38,43
38,45
38,46
38,47
39,41
39,42
39,44
39,48
40,49
40,50
40,51
40,52
40,53
40,54
40,55
40,56
40,57
41,242
42,58
43,58
44,58
45,58
46,132
47,132
48,59
48,74
48,113
49,60
49,61
49,68
49,76
49,83
50,112
50,131
50,149
50,165
51,61
52,160
52,185
52,199
53,84
53,88
54,60
54,61
54,75
54,124
54,131
55,60
55,61
56,69
56,79
57,61
57,68
57,80
57,82
58,60
58,62
58,63
58,64
58,65
58,66
58,67
59,87
59,130
59,134
60,121
61,121
62,132
63,132
64,134
64,168
65,77
66,70
66,71
66,72
67,69
67,73
68,75
68,113
68,122
68,131
69,229
70,183
71,183
72,74
72,75
72,76
72,78
73,75
73,77
74,163
75,183
76,201
77,80
77,83
78,79
78,81
78,82
79,84
80,84
81,110
82,110
83,85
83,86
83,87
83,88
84,89
84,90
84,91
84,92
84,93
84,94
84,95
84,96
84,97
84,98
84,99
84,100
84,101
84,102
84,103
84,104
84,105
85,217
86,183
87,105
88,105
88,133
88,136
89,201
90,118
91,106
91,113
92,108
92,114
93,109
93,116
94,106
94,107
94,118
95,165
95,167
96,119
96,131
97,229
97,230
98,118
99,106
99,109
99,110
100,108
100,115
101,106
101,130
102,111
102,116
102,131
103,106
103,119
103,146
104,107
104,120
105,106
105,112
105,118
105,137
105,145
106,163
107,183
108,121
109,201
110,114
110,115
110,116
110,117
110,118
110,119
110,120
111,115
111,119
112,162
113,116
114,183
115,183
116,121
117,121
118,132
119,150
119,158
119,162
120,121
120,122
120,123
121,125
121,126
121,127
121,128
121,129
121,130
122,132
123,124
123,131
124,183
125,132
126,155
126,158
126,171
126,198
127,137
128,133
128,153
128,170
129,136
129,149
129,184
130,132
130,135
130,136
131,134
131,167
131,201
131,211
132,138
132,139
132,140
132,141
132,142
132,143
132,144
132,146
133,137
133,145
134,219
135,149
135,156
136,150
137,217
138,231
139,165
139,171
140,230
140,231
141,147
141,184
142,147
142,150
142,151
142,152
143,169
143,199
143,218
144,148
144,149
145,162
145,163
145,165
146,158
146,161
147,203
148,183
149,242
150,153
150,155
150,165
150,167
151,154
151,156
152,153
153,163
154,183
155,242
156,157
156,158
156,159
156,160
156,161
156,162
157,163
158,183
159,201
160,242
161,163
161,164
161,165
161,170
162,166
162,167
162,168
162,169
162,171
162,202
163,172
163,173
163,174
163,175
163,176
163,177
163,178
163,179
163,180
163,181
163,182
164,183
165,183
166,242
167,242
169,184
170,202
173,212
173,217
175,185
176,204
177,185
178,198
178,211
178,212
179,185
179,220
180,199
180,249
181,196
182,197
183,186
183,187
183,188
183,189
183,190
183,191
183,192
183,193
183,194
183,195
184,217
184,219
185,229
186,203
189,200
190,220
192,202
193,243
194,199
194,211
195,249
196,201
198,204
199,203
200,203
201,204
201,205
201,206
201,207
201,208
201,209
201,210
202,211
202,212
202,218
203,213
203,214
203,215
203,216
204,217
205,230
206,219
206,229
207,242
209,218
209,219
209,230
211,219
212,220
213,228
217,220
217,221
217,222
217,223
217,224
217,225
217,226
217,227
218,229
220,229
223,231
223,249
224,230
228,231
228,242
229,232
229,233
229,234
229,235
229,236
229,237
229,238
229,239
229,240
229,241
229,243
230,242
231,243
232,250
240,249
241,250
242,244
242,245
242,246
242,247
242,248

<end>
